SECTION Graph
Nodes 128
Edges 247
E 1 6 1
E 2 7 1
E 2 111 2
E 2 112 9
E 3 113 5
E 4 111 9
E 4 112 2
E 4 114 1
E 5 12 5
E 5 107 1
E 5 108 2
E 5 109 6
E 6 7 1
E 6 8 9
E 7 109 9
E 7 110 2
E 8 107 6
E 8 109 1
E 9 108 6
E 9 109 2
E 9 110 9
E 10 11 1
E 10 13 9
E 10 16 1
E 11 17 1
E 11 103 2
E 11 104 9
E 12 104 6
E 12 105 1
E 12 106 2
E 13 104 1
E 13 105 6
E 14 103 9
E 14 104 2
E 14 106 6
E 15 22 5
E 15 99 1
E 15 100 2
E 15 101 6
E 16 17 1
E 16 18 9
E 17 101 9
E 17 102 2
E 18 99 6
E 18 101 1
E 19 100 6
E 19 101 2
E 19 102 9
E 20 21 1
E 20 23 9
E 20 26 1
E 21 27 1
E 21 95 2
E 21 96 9
E 22 96 6
E 22 97 1
E 22 98 2
E 23 96 1
E 23 97 6
E 24 95 9
E 24 96 2
E 24 98 6
E 25 32 5
E 25 91 1
E 25 92 2
E 25 93 6
E 26 27 1
E 26 28 9
E 27 93 9
E 27 94 2
E 28 91 6
E 28 93 1
E 29 92 6
E 29 93 2
E 29 94 9
E 30 31 1
E 30 33 9
E 30 36 1
E 31 37 1
E 31 87 2
E 31 88 9
E 32 88 6
E 32 89 1
E 32 90 2
E 33 88 1
E 33 89 6
E 34 87 9
E 34 88 2
E 34 90 6
E 35 42 5
E 35 83 1
E 35 84 2
E 35 85 6
E 36 37 1
E 36 38 9
E 37 85 9
E 37 86 2
E 38 83 6
E 38 85 1
E 39 84 6
E 39 85 2
E 39 86 9
E 40 41 1
E 40 43 9
E 40 46 1
E 41 47 1
E 41 79 2
E 41 80 9
E 42 80 6
E 42 81 1
E 42 82 2
E 43 80 1
E 43 81 6
E 44 79 9
E 44 80 2
E 44 82 6
E 45 52 5
E 45 75 1
E 45 76 2
E 45 77 6
E 46 47 1
E 46 48 9
E 47 77 9
E 47 78 2
E 48 75 6
E 48 77 1
E 49 76 6
E 49 77 2
E 49 78 9
E 50 51 1
E 50 53 9
E 50 69 21
E 51 57 21
E 51 71 2
E 51 72 9
E 52 72 6
E 52 73 1
E 52 74 2
E 53 72 1
E 53 73 6
E 54 71 9
E 54 72 2
E 54 74 6
E 55 56 1
E 55 58 9
E 55 61 1
E 56 62 1
E 56 67 2
E 56 68 9
E 57 68 6
E 57 69 1
E 57 70 2
E 58 68 1
E 58 69 6
E 59 67 9
E 59 68 2
E 59 70 6
E 60 65 6
E 61 62 1
E 62 65 9
E 62 66 2
E 63 65 2
E 63 66 9
E 64 114 21
E 66 67 1
E 70 71 21
E 73 75 5
E 74 76 5
E 78 79 1
E 81 83 5
E 82 84 5
E 86 87 1
E 89 91 5
E 90 92 5
E 94 95 1
E 97 99 5
E 98 100 5
E 102 103 1
E 105 107 5
E 106 108 5
E 110 111 1
E 112 113 1
E 113 114 2
E 1 115 100000
E 2 115 100000
E 3 115 100000
E 4 115 100000
E 5 116 100000
E 6 116 100000
E 7 116 100000
E 8 116 100000
E 9 116 100000
E 10 117 100000
E 11 117 100000
E 12 117 100000
E 13 117 100000
E 14 117 100000
E 15 118 100000
E 16 118 100000
E 17 118 100000
E 18 118 100000
E 19 118 100000
E 20 119 100000
E 21 119 100000
E 22 119 100000
E 23 119 100000
E 24 119 100000
E 25 120 100000
E 26 120 100000
E 27 120 100000
E 28 120 100000
E 29 120 100000
E 30 121 100000
E 31 121 100000
E 32 121 100000
E 33 121 100000
E 34 121 100000
E 35 122 100000
E 36 122 100000
E 37 122 100000
E 38 122 100000
E 39 122 100000
E 40 123 100000
E 41 123 100000
E 42 123 100000
E 43 123 100000
E 44 123 100000
E 45 124 100000
E 46 124 100000
E 47 124 100000
E 48 124 100000
E 49 124 100000
E 50 125 100000
E 51 125 100000
E 52 125 100000
E 53 125 100000
E 54 125 100000
E 55 126 100000
E 56 126 100000
E 57 126 100000
E 58 126 100000
E 59 126 100000
E 60 127 100000
E 61 127 100000
E 62 127 100000
E 63 127 100000
E 64 128 100000
END

SECTION Terminals
Terminals 14
T 115
T 116
T 117
T 118
T 119
T 120
T 121
T 122
T 123
T 124
T 125
T 126
T 127
T 128
END

EOF
